p cnf 35 95
a 32 7 0
e 1 2 3 4 5 6 8 9 10 11 12 13 14 15 16 17 18 19 20 21 22 23 24 25 26 27 28 29 30 31 33 34 35 0
-3 1 0
-3 2 0
-1 -2 3 0
5 -3 0
5 4 0
3 -4 -5 0
8 2 0
8 7 0
-2 -7 -8 0
-9 6 0
-9 8 0
-6 -8 9 0
-2 10 -11 0
2 -10 -11 0
-2 -10 11 0
2 10 11 0
-13 12 0
-13 7 0
-12 -7 13 0
11 13 -14 0
-11 -13 -14 0
11 -13 14 0
-11 13 14 0
-15 9 0
-15 14 0
-9 -14 15 0
-16 -7 0
-16 -10 0
7 10 16 0
18 -17 0
18 16 0
17 -16 -18 0
-19 16 0
-19 18 0
-16 -18 19 0
20 6 0
20 1 0
-6 -1 -20 0
-21 -20 0
-21 -16 0
20 16 21 0
22 -19 0
22 21 0
19 -21 -22 0
-23 -20 0
-23 -2 0
20 2 23 0
-1 -10 -24 0
1 10 -24 0
-1 10 24 0
1 -10 24 0
25 2 0
25 24 0
-2 -24 -25 0
-26 12 0
-26 -1 0
-12 1 26 0
-27 -25 0
-27 -26 0
25 26 27 0
-28 27 0
-28 16 0
-27 -16 28 0
-29 -23 0
-29 -28 0
23 28 29 0
-30 -22 0
-30 -29 0
22 29 30 0
31 24 0
31 -24 0
16 31 -32 0
-16 -31 -32 0
16 -31 32 0
-16 31 32 0
-33 30 0
-33 -32 0
-30 32 33 0
15 -33 -34 0
-15 33 -34 0
15 33 34 0
-15 -33 34 0
-35 5 0
-35 -34 0
-5 34 35 0
-21 8 14 -12 -13 7 0
-14 24 17 -35 20 -8 0
-27 -8 -24 0
34 27 4 0
-13 -7 -16 -30 -26 -21 0
-11 20 16 -25 10 0
3 -13 2 32 -22 -19 0
11 13 25 -17 4 1 0
21 13 29 -28 16 0
35 0
